
Welcome to IBM(R) ILOG(R) CPLEX(R) Interactive Optimizer 22.1.1.0
  with Simplex, Mixed Integer & Barrier Optimizers
5725-A06 5725-A29 5724-Y48 5724-Y49 5724-Y54 5724-Y55 5655-Y21
Copyright IBM Corp. 1988, 2022.  All Rights Reserved.

Type 'help' for a list of available commands.
Type 'help' followed by a command name for more
information on commands.

CPLEX> Selected objective sense:  MINIMIZE
Selected objective  name:  00000000
Selected RHS        name:  RHS1
Selected bound      name:  BOUND
Problem 'ee.mps' read.
Read time = 0.02 sec. (3.17 ticks)
CPLEX> New value for time limit in seconds: 7200
CPLEX> New value for parallel optimization mode: -1
CPLEX> New value for default parallel thread count: 40
CPLEX> New value for mixed integer optimality gap tolerance: 1e-13
CPLEX> Version identifier: 22.1.1.0 | 2022-11-28 | 9160aff4d
CPXPARAM_Threads                                 40
CPXPARAM_Parallel                                -1
CPXPARAM_TimeLimit                               7200
CPXPARAM_MIP_Tolerances_MIPGap                   1e-13
Found incumbent of value 0.000000 after 0.00 sec. (0.31 ticks)
Tried aggregator 2 times.
MIP Presolve eliminated 182 rows and 2745 columns.
MIP Presolve modified 6090 coefficients.
Aggregator did 713 substitutions.
Reduced MIP has 3636 rows, 7840 columns, and 28954 nonzeros.
Reduced MIP has 7840 binaries, 0 generals, 0 SOSs, and 0 indicators.
Presolve time = 0.07 sec. (69.14 ticks)
Probing time = 0.03 sec. (5.33 ticks)
Tried aggregator 1 time.
Detecting symmetries...
Reduced MIP has 3636 rows, 7840 columns, and 28954 nonzeros.
Reduced MIP has 7840 binaries, 0 generals, 0 SOSs, and 0 indicators.
Presolve time = 0.02 sec. (22.10 ticks)
Probing time = 0.02 sec. (5.12 ticks)
Clique table members: 18788.
MIP emphasis: balance optimality and feasibility.
MIP search method: dynamic search.
Parallel mode: opportunistic, using up to 40 threads.
Root relaxation solution time = 0.16 sec. (150.46 ticks)

        Nodes                                         Cuts/
   Node  Left     Objective  IInf  Best Integer    Best Bound    ItCnt     Gap

*     0+    0                            0.0000  -1.54000e+13              --- 
*     0+    0                      -7.20000e+12  -1.54000e+13           113.89%
      0     0  -1.53900e+13   115  -7.20000e+12  -1.53900e+13     3033  113.75%
*     0+    0                      -1.53900e+13  -1.53900e+13             0.00%
      0     0  -1.53900e+13   195  -1.53900e+13      Cuts: 91     3563    0.00%
*     0+    0                      -1.53900e+13  -1.53900e+13             0.00%
      0     0  -1.53900e+13   196  -1.53900e+13     Cuts: 124     4140    0.00%
*     0+    0                      -1.53900e+13  -1.53900e+13             0.00%
      0    27    infeasible        -1.53900e+13  -1.53900e+13    11788    0.00%
Elapsed time = 2.89 sec. (1631.66 ticks, tree = 0.02 MB, solutions = 8)
     71    82  -1.53900e+13    95  -1.53900e+13  -1.53900e+13    50721    0.00%
    313   110  -1.53900e+13    36  -1.53900e+13  -1.53900e+13   114354    0.00%
    876   112    infeasible        -1.53900e+13  -1.53900e+13   109042    0.00%
   1634   131  -1.53900e+13   112  -1.53900e+13  -1.53900e+13   120226    0.00%
   2453   112    infeasible        -1.53900e+13  -1.53900e+13   114192    0.00%
   3625   144    infeasible        -1.53900e+13  -1.53900e+13   165139    0.00%
   4956    88  -1.53900e+13    82  -1.53900e+13  -1.53900e+13   367537    0.00%
   6390   106  -1.53900e+13    80  -1.53900e+13  -1.53900e+13   339363    0.00%
   7991    96  -1.53900e+13    97  -1.53900e+13  -1.53900e+13   375243    0.00%
  13019   253  -1.53900e+13    60  -1.53900e+13  -1.53900e+13   408791    0.00%
Elapsed time = 8.40 sec. (4735.84 ticks, tree = 1.08 MB, solutions = 8)
  14522  1467  -1.53900e+13    32  -1.53900e+13  -1.53900e+13   614921    0.00%

Performing restart 1

Repeating presolve.
Tried aggregator 2 times.
MIP Presolve eliminated 31 rows and 44 columns.
MIP Presolve added 4 rows and 0 columns.
MIP Presolve modified 1873 coefficients.
Aggregator did 21 substitutions.
Reduced MIP has 3512 rows, 7775 columns, and 28145 nonzeros.
Reduced MIP has 7775 binaries, 0 generals, 0 SOSs, and 0 indicators.
Presolve time = 0.06 sec. (50.03 ticks)
Tried aggregator 2 times.
MIP Presolve eliminated 12 rows and 39 columns.
MIP Presolve modified 28 coefficients.
Aggregator did 14 substitutions.
Reduced MIP has 3486 rows, 7716 columns, and 27929 nonzeros.
Reduced MIP has 7716 binaries, 0 generals, 0 SOSs, and 0 indicators.
Presolve time = 0.06 sec. (53.16 ticks)
Represolve time = 0.24 sec. (156.46 ticks)
  14523     0  -1.53900e+13   277  -1.53900e+13      Cuts: 37   772872    0.00%
  14523     0  -1.53900e+13   283  -1.53900e+13      Cuts: 42   773484    0.00%
  14523     0  -1.53900e+13   203  -1.53900e+13      Cuts: 35   773911    0.00%
  14523     0  -1.53900e+13   249  -1.53900e+13      Cuts: 65   774282    0.00%
  14523     0  -1.53900e+13   310  -1.53900e+13      Cuts: 74   774901    0.00%
  14523     0  -1.53900e+13   375  -1.53900e+13      Cuts: 73   775302    0.00%
  14523    26        cutoff        -1.53900e+13  -1.53900e+13   783106    0.00%
* 14824    17      integral     0  -1.53900e+13  -1.53900e+13   793027    0.00%
  14971     3  -1.53900e+13   205  -1.53900e+13  -1.53900e+13   780710    0.00%

GUB cover cuts applied:  7
Clique cuts applied:  19
Cover cuts applied:  179
Mixed integer rounding cuts applied:  8
Zero-half cuts applied:  28
Lift and project cuts applied:  4
Gomory fractional cuts applied:  18

Root node processing (before b&c):
  Real time             =    1.90 sec. (1623.55 ticks)
Parallel b&c, 40 threads:
  Real time             =   14.20 sec. (8883.23 ticks)
  Sync time (average)   =    3.88 sec.
  Wait time (average)   =    0.16 sec.
                          ------------
Total (root+branch&cut) =   16.10 sec. (10506.79 ticks)

Solution pool: 10 solutions saved.

MIP - Integer optimal solution:  Objective = -1.5389998488e+13
Solution time =   16.22 sec.  Iterations = 794846  Nodes = 15011
Deterministic time = 10506.82 ticks  (647.60 ticks/sec)

CPLEX> Solution 'p11' written to file 'ee.sol'.
CPLEX> 